&CONTROL
  calculation='nscf'
  outdir='./tmp'
  prefix='CsC8_Ir111_9x9x1'
  pseudo_dir='../PSEUDO'
/

&SYSTEM
  ibrav=4
  celldm(1)=9.3020067728 
  celldm(3)=6.0945756245
  nat=24
  ntyp=3
  ecutwfc=50
  ecutrho=400
  input_dft='vdw-df-cx'
  occupations='smearing'
  smearing='mp'
  degauss=0.005
  nbnd=300
/

&ELECTRONS
  conv_thr=1d-07
  mixing_beta=0.7

/
ATOMIC_SPECIES
  C 12.010700 C.pbe-hgh.UPF
  Cs 132.905000 Cs.pbe-sp-hgh.UPF
  Ir 192.217000 Ir.pbe-n-rrkjus_psl.0.2.3.UPF

ATOMIC_POSITIONS (crystal)
C        0.833297178   0.666595158   0.262051988
C        0.333404116   0.166702021   0.262051988
C        0.166701366   0.833297252   0.262051988
C        0.666666182   0.333333091   0.262255342
C        0.833297252   0.166702094   0.262051988
C        0.333332364   0.666666182   0.262255342
C        0.166701291   0.333404114   0.262051988
C        0.666594430   0.833297178   0.262051988
Cs      -0.000000000  -0.000000000   0.367867686
Ir       0.632349917   0.632349917   0.466919208
Ir       0.367649354  -0.000000000   0.466919208
Ir      -0.000000728   0.367649354   0.466919208
Ir       0.000000000   0.000000000   0.536673821
Ir       0.666666181   0.333333091   0.538885574
Ir       0.333332362   0.666666181   0.538885574
Ir       0.333553021   0.333553021   0.610625069
Ir      -0.000000728   0.666446251   0.610625069
Ir       0.666446251   0.000000000   0.610625069
Ir       0.665799622   0.665799622   0.683011437
Ir       0.334199650  -0.000000000   0.683011437
Ir      -0.000000728   0.334199650   0.683011437
Ir       0.000000000   0.000000000   0.753532097
Ir       0.666666181   0.333333091   0.753576008
Ir       0.333332362   0.666666181   0.753576008

K_POINTS {automatic}
  51 51 1 0 0 0


