&CONTROL
  calculation='bands'
  outdir='./tmp'
  prefix='CsC8_Ir111_9x9x1'
  pseudo_dir='../PSEUDO'
/

&SYSTEM
  ibrav=4
  celldm(1)=9.3020067728 
  celldm(3)=6.0945756245
  nat=24
  ntyp=3
  ecutwfc=50
  ecutrho=400
  input_dft='vdw-df-cx'
  occupations='smearing'
  smearing='mp'
  degauss=0.005
  nbnd=300
/

&ELECTRONS
  conv_thr=1d-07
  mixing_beta=0.7

/
ATOMIC_SPECIES
  C 12.010700 C.pbe-hgh.UPF
  Cs 132.905000 Cs.pbe-sp-hgh.UPF
  Ir 192.217000 Ir.pbe-n-rrkjus_psl.0.2.3.UPF

ATOMIC_POSITIONS (crystal)
C        0.833297178   0.666595158   0.262051988
C        0.333404116   0.166702021   0.262051988
C        0.166701366   0.833297252   0.262051988
C        0.666666182   0.333333091   0.262255342
C        0.833297252   0.166702094   0.262051988
C        0.333332364   0.666666182   0.262255342
C        0.166701291   0.333404114   0.262051988
C        0.666594430   0.833297178   0.262051988
Cs      -0.000000000  -0.000000000   0.367867686
Ir       0.632349917   0.632349917   0.466919208
Ir       0.367649354  -0.000000000   0.466919208
Ir      -0.000000728   0.367649354   0.466919208
Ir       0.000000000   0.000000000   0.536673821
Ir       0.666666181   0.333333091   0.538885574
Ir       0.333332362   0.666666181   0.538885574
Ir       0.333553021   0.333553021   0.610625069
Ir      -0.000000728   0.666446251   0.610625069
Ir       0.666446251   0.000000000   0.610625069
Ir       0.665799622   0.665799622   0.683011437
Ir       0.334199650  -0.000000000   0.683011437
Ir      -0.000000728   0.334199650   0.683011437
Ir       0.000000000   0.000000000   0.753532097
Ir       0.666666181   0.333333091   0.753576008
Ir       0.333332362   0.666666181   0.753576008

 K_POINTS crystal
        2601
        0.0000000000    0.0000000000    0.0000000000    1.0
        0.0003033030    0.0003033030    0.0000000000    1.0
        0.0006066060    0.0006066060    0.0000000000    1.0
        0.0009099090    0.0009099090    0.0000000000    1.0
        0.0012132120    0.0012132120    0.0000000000    1.0
        0.0015165150    0.0015165150    0.0000000000    1.0
        0.0018198180    0.0018198180    0.0000000000    1.0
        0.0021231210    0.0021231210    0.0000000000    1.0
        0.0024264240    0.0024264240    0.0000000000    1.0
        0.0027297270    0.0027297270    0.0000000000    1.0
        0.0030330300    0.0030330300    0.0000000000    1.0
        0.0033363330    0.0033363330    0.0000000000    1.0
        0.0036396360    0.0036396360    0.0000000000    1.0
        0.0039429390    0.0039429390    0.0000000000    1.0
        0.0042462420    0.0042462420    0.0000000000    1.0
        0.0045495450    0.0045495450    0.0000000000    1.0
        0.0048528480    0.0048528480    0.0000000000    1.0
        0.0051561510    0.0051561510    0.0000000000    1.0
        0.0054594540    0.0054594540    0.0000000000    1.0
        0.0057627571    0.0057627571    0.0000000000    1.0
        0.0060660601    0.0060660601    0.0000000000    1.0
        0.0063693631    0.0063693631    0.0000000000    1.0
        0.0066726661    0.0066726661    0.0000000000    1.0
        0.0069759691    0.0069759691    0.0000000000    1.0
        0.0072792721    0.0072792721    0.0000000000    1.0
        0.0075825751    0.0075825751    0.0000000000    1.0
        0.0078858781    0.0078858781    0.0000000000    1.0
        0.0081891811    0.0081891811    0.0000000000    1.0
        0.0084924841    0.0084924841    0.0000000000    1.0
        0.0087957871    0.0087957871    0.0000000000    1.0
        0.0090990901    0.0090990901    0.0000000000    1.0
        0.0094023931    0.0094023931    0.0000000000    1.0
        0.0097056961    0.0097056961    0.0000000000    1.0
        0.0100089991    0.0100089991    0.0000000000    1.0
        0.0103123021    0.0103123021    0.0000000000    1.0
        0.0106156051    0.0106156051    0.0000000000    1.0
        0.0109189081    0.0109189081    0.0000000000    1.0
        0.0112222111    0.0112222111    0.0000000000    1.0
        0.0115255141    0.0115255141    0.0000000000    1.0
        0.0118288171    0.0118288171    0.0000000000    1.0
        0.0121321201    0.0121321201    0.0000000000    1.0
        0.0124354231    0.0124354231    0.0000000000    1.0
        0.0127387261    0.0127387261    0.0000000000    1.0
        0.0130420291    0.0130420291    0.0000000000    1.0
        0.0133453321    0.0133453321    0.0000000000    1.0
        0.0136486351    0.0136486351    0.0000000000    1.0
        0.0139519381    0.0139519381    0.0000000000    1.0
        0.0142552411    0.0142552411    0.0000000000    1.0
        0.0145585441    0.0145585441    0.0000000000    1.0
        0.0148618471    0.0148618471    0.0000000000    1.0
        0.0151651501    0.0151651501    0.0000000000    1.0
        0.0154684531    0.0154684531    0.0000000000    1.0
        0.0157717561    0.0157717561    0.0000000000    1.0
        0.0160750591    0.0160750591    0.0000000000    1.0
        0.0163783621    0.0163783621    0.0000000000    1.0
        0.0166816652    0.0166816652    0.0000000000    1.0
        0.0169849682    0.0169849682    0.0000000000    1.0
        0.0172882712    0.0172882712    0.0000000000    1.0
        0.0175915742    0.0175915742    0.0000000000    1.0
        0.0178948772    0.0178948772    0.0000000000    1.0
        0.0181981802    0.0181981802    0.0000000000    1.0
        0.0185014832    0.0185014832    0.0000000000    1.0
        0.0188047862    0.0188047862    0.0000000000    1.0
        0.0191080892    0.0191080892    0.0000000000    1.0
        0.0194113922    0.0194113922    0.0000000000    1.0
        0.0197146952    0.0197146952    0.0000000000    1.0
        0.0200179982    0.0200179982    0.0000000000    1.0
        0.0203213012    0.0203213012    0.0000000000    1.0
        0.0206246042    0.0206246042    0.0000000000    1.0
        0.0209279072    0.0209279072    0.0000000000    1.0
        0.0212312102    0.0212312102    0.0000000000    1.0
        0.0215345132    0.0215345132    0.0000000000    1.0
        0.0218378162    0.0218378162    0.0000000000    1.0
        0.0221411192    0.0221411192    0.0000000000    1.0
        0.0224444222    0.0224444222    0.0000000000    1.0
        0.0227477252    0.0227477252    0.0000000000    1.0
        0.0230510282    0.0230510282    0.0000000000    1.0
        0.0233543312    0.0233543312    0.0000000000    1.0
        0.0236576342    0.0236576342    0.0000000000    1.0
        0.0239609372    0.0239609372    0.0000000000    1.0
        0.0242642402    0.0242642402    0.0000000000    1.0
        0.0245675432    0.0245675432    0.0000000000    1.0
        0.0248708462    0.0248708462    0.0000000000    1.0
        0.0251741492    0.0251741492    0.0000000000    1.0
        0.0254774522    0.0254774522    0.0000000000    1.0
        0.0257807552    0.0257807552    0.0000000000    1.0
        0.0260840582    0.0260840582    0.0000000000    1.0
        0.0263873612    0.0263873612    0.0000000000    1.0
        0.0266906642    0.0266906642    0.0000000000    1.0
        0.0269939672    0.0269939672    0.0000000000    1.0
        0.0272972702    0.0272972702    0.0000000000    1.0
        0.0276005732    0.0276005732    0.0000000000    1.0
        0.0279038763    0.0279038763    0.0000000000    1.0
        0.0282071793    0.0282071793    0.0000000000    1.0
        0.0285104823    0.0285104823    0.0000000000    1.0
        0.0288137853    0.0288137853    0.0000000000    1.0
        0.0291170883    0.0291170883    0.0000000000    1.0
        0.0294203913    0.0294203913    0.0000000000    1.0
        0.0297236943    0.0297236943    0.0000000000    1.0
        0.0300269973    0.0300269973    0.0000000000    1.0
        0.0303303003    0.0303303003    0.0000000000    1.0
        0.0306336033    0.0306336033    0.0000000000    1.0
        0.0309369063    0.0309369063    0.0000000000    1.0
        0.0312402093    0.0312402093    0.0000000000    1.0
        0.0315435123    0.0315435123    0.0000000000    1.0
        0.0318468153    0.0318468153    0.0000000000    1.0
        0.0321501183    0.0321501183    0.0000000000    1.0
        0.0324534213    0.0324534213    0.0000000000    1.0
        0.0327567243    0.0327567243    0.0000000000    1.0
        0.0330600273    0.0330600273    0.0000000000    1.0
        0.0333633303    0.0333633303    0.0000000000    1.0
        0.0336666333    0.0336666333    0.0000000000    1.0
        0.0339699363    0.0339699363    0.0000000000    1.0
        0.0342732393    0.0342732393    0.0000000000    1.0
        0.0345765423    0.0345765423    0.0000000000    1.0
        0.0348798453    0.0348798453    0.0000000000    1.0
        0.0351831483    0.0351831483    0.0000000000    1.0
        0.0354864513    0.0354864513    0.0000000000    1.0
        0.0357897543    0.0357897543    0.0000000000    1.0
        0.0360930573    0.0360930573    0.0000000000    1.0
        0.0363963603    0.0363963603    0.0000000000    1.0
        0.0366996633    0.0366996633    0.0000000000    1.0
        0.0370029663    0.0370029663    0.0000000000    1.0
        0.0373062693    0.0373062693    0.0000000000    1.0
        0.0376095723    0.0376095723    0.0000000000    1.0
        0.0379128753    0.0379128753    0.0000000000    1.0
        0.0382161783    0.0382161783    0.0000000000    1.0
        0.0385194813    0.0385194813    0.0000000000    1.0
        0.0388227843    0.0388227843    0.0000000000    1.0
        0.0391260874    0.0391260874    0.0000000000    1.0
        0.0394293904    0.0394293904    0.0000000000    1.0
        0.0397326934    0.0397326934    0.0000000000    1.0
        0.0400359964    0.0400359964    0.0000000000    1.0
        0.0403392994    0.0403392994    0.0000000000    1.0
        0.0406426024    0.0406426024    0.0000000000    1.0
        0.0409459054    0.0409459054    0.0000000000    1.0
        0.0412492084    0.0412492084    0.0000000000    1.0
        0.0415525114    0.0415525114    0.0000000000    1.0
        0.0418558144    0.0418558144    0.0000000000    1.0
        0.0421591174    0.0421591174    0.0000000000    1.0
        0.0424624204    0.0424624204    0.0000000000    1.0
        0.0427657234    0.0427657234    0.0000000000    1.0
        0.0430690264    0.0430690264    0.0000000000    1.0
        0.0433723294    0.0433723294    0.0000000000    1.0
        0.0436756324    0.0436756324    0.0000000000    1.0
        0.0439789354    0.0439789354    0.0000000000    1.0
        0.0442822384    0.0442822384    0.0000000000    1.0
        0.0445855414    0.0445855414    0.0000000000    1.0
        0.0448888444    0.0448888444    0.0000000000    1.0
        0.0451921474    0.0451921474    0.0000000000    1.0
        0.0454954504    0.0454954504    0.0000000000    1.0
        0.0457987534    0.0457987534    0.0000000000    1.0
        0.0461020564    0.0461020564    0.0000000000    1.0
        0.0464053594    0.0464053594    0.0000000000    1.0
        0.0467086624    0.0467086624    0.0000000000    1.0
        0.0470119654    0.0470119654    0.0000000000    1.0
        0.0473152684    0.0473152684    0.0000000000    1.0
        0.0476185714    0.0476185714    0.0000000000    1.0
        0.0479218744    0.0479218744    0.0000000000    1.0
        0.0482251774    0.0482251774    0.0000000000    1.0
        0.0485284804    0.0485284804    0.0000000000    1.0
        0.0488317834    0.0488317834    0.0000000000    1.0
        0.0491350864    0.0491350864    0.0000000000    1.0
        0.0494383894    0.0494383894    0.0000000000    1.0
        0.0497416924    0.0497416924    0.0000000000    1.0
        0.0500449955    0.0500449955    0.0000000000    1.0
        0.0503482985    0.0503482985    0.0000000000    1.0
        0.0506516015    0.0506516015    0.0000000000    1.0
        0.0509549045    0.0509549045    0.0000000000    1.0
        0.0512582075    0.0512582075    0.0000000000    1.0
        0.0515615105    0.0515615105    0.0000000000    1.0
        0.0518648135    0.0518648135    0.0000000000    1.0
        0.0521681165    0.0521681165    0.0000000000    1.0
        0.0524714195    0.0524714195    0.0000000000    1.0
        0.0527747225    0.0527747225    0.0000000000    1.0
        0.0530780255    0.0530780255    0.0000000000    1.0
        0.0533813285    0.0533813285    0.0000000000    1.0
        0.0536846315    0.0536846315    0.0000000000    1.0
        0.0539879345    0.0539879345    0.0000000000    1.0
        0.0542912375    0.0542912375    0.0000000000    1.0
        0.0545945405    0.0545945405    0.0000000000    1.0
        0.0548978435    0.0548978435    0.0000000000    1.0
        0.0552011465    0.0552011465    0.0000000000    1.0
        0.0555044495    0.0555044495    0.0000000000    1.0
        0.0558077525    0.0558077525    0.0000000000    1.0
        0.0561110555    0.0561110555    0.0000000000    1.0
        0.0564143585    0.0564143585    0.0000000000    1.0
        0.0567176615    0.0567176615    0.0000000000    1.0
        0.0570209645    0.0570209645    0.0000000000    1.0
        0.0573242675    0.0573242675    0.0000000000    1.0
        0.0576275705    0.0576275705    0.0000000000    1.0
        0.0579308735    0.0579308735    0.0000000000    1.0
        0.0582341765    0.0582341765    0.0000000000    1.0
        0.0585374795    0.0585374795    0.0000000000    1.0
        0.0588407825    0.0588407825    0.0000000000    1.0
        0.0591440855    0.0591440855    0.0000000000    1.0
        0.0594473885    0.0594473885    0.0000000000    1.0
        0.0597506915    0.0597506915    0.0000000000    1.0
        0.0600539945    0.0600539945    0.0000000000    1.0
        0.0603572975    0.0603572975    0.0000000000    1.0
        0.0606606005    0.0606606005    0.0000000000    1.0
        0.0609639035    0.0609639035    0.0000000000    1.0
        0.0612672066    0.0612672066    0.0000000000    1.0
        0.0615705096    0.0615705096    0.0000000000    1.0
        0.0618738126    0.0618738126    0.0000000000    1.0
        0.0621771156    0.0621771156    0.0000000000    1.0
        0.0624804186    0.0624804186    0.0000000000    1.0
        0.0627837216    0.0627837216    0.0000000000    1.0
        0.0630870246    0.0630870246    0.0000000000    1.0
        0.0633903276    0.0633903276    0.0000000000    1.0
        0.0636936306    0.0636936306    0.0000000000    1.0
        0.0639969336    0.0639969336    0.0000000000    1.0
        0.0643002366    0.0643002366    0.0000000000    1.0
        0.0646035396    0.0646035396    0.0000000000    1.0
        0.0649068426    0.0649068426    0.0000000000    1.0
        0.0652101456    0.0652101456    0.0000000000    1.0
        0.0655134486    0.0655134486    0.0000000000    1.0
        0.0658167516    0.0658167516    0.0000000000    1.0
        0.0661200546    0.0661200546    0.0000000000    1.0
        0.0664233576    0.0664233576    0.0000000000    1.0
        0.0667266606    0.0667266606    0.0000000000    1.0
        0.0670299636    0.0670299636    0.0000000000    1.0
        0.0673332666    0.0673332666    0.0000000000    1.0
        0.0676365696    0.0676365696    0.0000000000    1.0
        0.0679398726    0.0679398726    0.0000000000    1.0
        0.0682431756    0.0682431756    0.0000000000    1.0
        0.0685464786    0.0685464786    0.0000000000    1.0
        0.0688497816    0.0688497816    0.0000000000    1.0
        0.0691530846    0.0691530846    0.0000000000    1.0
        0.0694563876    0.0694563876    0.0000000000    1.0
        0.0697596906    0.0697596906    0.0000000000    1.0
        0.0700629936    0.0700629936    0.0000000000    1.0
        0.0703662966    0.0703662966    0.0000000000    1.0
        0.0706695996    0.0706695996    0.0000000000    1.0
        0.0709729026    0.0709729026    0.0000000000    1.0
        0.0712762056    0.0712762056    0.0000000000    1.0
        0.0715795086    0.0715795086    0.0000000000    1.0
        0.0718828116    0.0718828116    0.0000000000    1.0
        0.0721861146    0.0721861146    0.0000000000    1.0
        0.0724894177    0.0724894177    0.0000000000    1.0
        0.0727927207    0.0727927207    0.0000000000    1.0
        0.0730960237    0.0730960237    0.0000000000    1.0
        0.0733993267    0.0733993267    0.0000000000    1.0
        0.0737026297    0.0737026297    0.0000000000    1.0
        0.0740059327    0.0740059327    0.0000000000    1.0
        0.0743092357    0.0743092357    0.0000000000    1.0
        0.0746125387    0.0746125387    0.0000000000    1.0
        0.0749158417    0.0749158417    0.0000000000    1.0
        0.0752191447    0.0752191447    0.0000000000    1.0
        0.0755224477    0.0755224477    0.0000000000    1.0
        0.0758257507    0.0758257507    0.0000000000    1.0
        0.0761290537    0.0761290537    0.0000000000    1.0
        0.0764323567    0.0764323567    0.0000000000    1.0
        0.0767356597    0.0767356597    0.0000000000    1.0
        0.0770389627    0.0770389627    0.0000000000    1.0
        0.0773422657    0.0773422657    0.0000000000    1.0
        0.0776455687    0.0776455687    0.0000000000    1.0
        0.0779488717    0.0779488717    0.0000000000    1.0
        0.0782521747    0.0782521747    0.0000000000    1.0
        0.0785554777    0.0785554777    0.0000000000    1.0
        0.0788587807    0.0788587807    0.0000000000    1.0
        0.0791620837    0.0791620837    0.0000000000    1.0
        0.0794653867    0.0794653867    0.0000000000    1.0
        0.0797686897    0.0797686897    0.0000000000    1.0
        0.0800719927    0.0800719927    0.0000000000    1.0
        0.0803752957    0.0803752957    0.0000000000    1.0
        0.0806785987    0.0806785987    0.0000000000    1.0
        0.0809819017    0.0809819017    0.0000000000    1.0
        0.0812852047    0.0812852047    0.0000000000    1.0
        0.0815885077    0.0815885077    0.0000000000    1.0
        0.0818918107    0.0818918107    0.0000000000    1.0
        0.0821951137    0.0821951137    0.0000000000    1.0
        0.0824984167    0.0824984167    0.0000000000    1.0
        0.0828017197    0.0828017197    0.0000000000    1.0
        0.0831050227    0.0831050227    0.0000000000    1.0
        0.0834083258    0.0834083258    0.0000000000    1.0
        0.0837116288    0.0837116288    0.0000000000    1.0
        0.0840149318    0.0840149318    0.0000000000    1.0
        0.0843182348    0.0843182348    0.0000000000    1.0
        0.0846215378    0.0846215378    0.0000000000    1.0
        0.0849248408    0.0849248408    0.0000000000    1.0
        0.0852281438    0.0852281438    0.0000000000    1.0
        0.0855314468    0.0855314468    0.0000000000    1.0
        0.0858347498    0.0858347498    0.0000000000    1.0
        0.0861380528    0.0861380528    0.0000000000    1.0
        0.0864413558    0.0864413558    0.0000000000    1.0
        0.0867446588    0.0867446588    0.0000000000    1.0
        0.0870479618    0.0870479618    0.0000000000    1.0
        0.0873512648    0.0873512648    0.0000000000    1.0
        0.0876545678    0.0876545678    0.0000000000    1.0
        0.0879578708    0.0879578708    0.0000000000    1.0
        0.0882611738    0.0882611738    0.0000000000    1.0
        0.0885644768    0.0885644768    0.0000000000    1.0
        0.0888677798    0.0888677798    0.0000000000    1.0
        0.0891710828    0.0891710828    0.0000000000    1.0
        0.0894743858    0.0894743858    0.0000000000    1.0
        0.0897776888    0.0897776888    0.0000000000    1.0
        0.0900809918    0.0900809918    0.0000000000    1.0
        0.0903842948    0.0903842948    0.0000000000    1.0
        0.0906875978    0.0906875978    0.0000000000    1.0
        0.0909909008    0.0909909008    0.0000000000    1.0
        0.0912942038    0.0912942038    0.0000000000    1.0
        0.0915975068    0.0915975068    0.0000000000    1.0
        0.0919008098    0.0919008098    0.0000000000    1.0
        0.0922041128    0.0922041128    0.0000000000    1.0
        0.0925074158    0.0925074158    0.0000000000    1.0
        0.0928107188    0.0928107188    0.0000000000    1.0
        0.0931140218    0.0931140218    0.0000000000    1.0
        0.0934173248    0.0934173248    0.0000000000    1.0
        0.0937206278    0.0937206278    0.0000000000    1.0
        0.0940239308    0.0940239308    0.0000000000    1.0
        0.0943272338    0.0943272338    0.0000000000    1.0
        0.0946305369    0.0946305369    0.0000000000    1.0
        0.0949338399    0.0949338399    0.0000000000    1.0
        0.0952371429    0.0952371429    0.0000000000    1.0
        0.0955404459    0.0955404459    0.0000000000    1.0
        0.0958437489    0.0958437489    0.0000000000    1.0
        0.0961470519    0.0961470519    0.0000000000    1.0
        0.0964503549    0.0964503549    0.0000000000    1.0
        0.0967536579    0.0967536579    0.0000000000    1.0
        0.0970569609    0.0970569609    0.0000000000    1.0
        0.0973602639    0.0973602639    0.0000000000    1.0
        0.0976635669    0.0976635669    0.0000000000    1.0
        0.0979668699    0.0979668699    0.0000000000    1.0
        0.0982701729    0.0982701729    0.0000000000    1.0
        0.0985734759    0.0985734759    0.0000000000    1.0
        0.0988767789    0.0988767789    0.0000000000    1.0
        0.0991800819    0.0991800819    0.0000000000    1.0
        0.0994833849    0.0994833849    0.0000000000    1.0
        0.0997866879    0.0997866879    0.0000000000    1.0
        0.1000899909    0.1000899909    0.0000000000    1.0
        0.1003932939    0.1003932939    0.0000000000    1.0
        0.1006965969    0.1006965969    0.0000000000    1.0
        0.1009998999    0.1009998999    0.0000000000    1.0
        0.1013032029    0.1013032029    0.0000000000    1.0
        0.1016065059    0.1016065059    0.0000000000    1.0
        0.1019098089    0.1019098089    0.0000000000    1.0
        0.1022131119    0.1022131119    0.0000000000    1.0
        0.1025164149    0.1025164149    0.0000000000    1.0
        0.1028197179    0.1028197179    0.0000000000    1.0
        0.1031230209    0.1031230209    0.0000000000    1.0
        0.1034263239    0.1034263239    0.0000000000    1.0
        0.1037296269    0.1037296269    0.0000000000    1.0
        0.1040329299    0.1040329299    0.0000000000    1.0
        0.1043362329    0.1043362329    0.0000000000    1.0
        0.1046395359    0.1046395359    0.0000000000    1.0
        0.1049428389    0.1049428389    0.0000000000    1.0
        0.1052461419    0.1052461419    0.0000000000    1.0
        0.1055494449    0.1055494449    0.0000000000    1.0
        0.1058527480    0.1058527480    0.0000000000    1.0
        0.1061560510    0.1061560510    0.0000000000    1.0
        0.1064593540    0.1064593540    0.0000000000    1.0
        0.1067626570    0.1067626570    0.0000000000    1.0
        0.1070659600    0.1070659600    0.0000000000    1.0
        0.1073692630    0.1073692630    0.0000000000    1.0
        0.1076725660    0.1076725660    0.0000000000    1.0
        0.1079758690    0.1079758690    0.0000000000    1.0
        0.1082791720    0.1082791720    0.0000000000    1.0
        0.1085824750    0.1085824750    0.0000000000    1.0
        0.1088857780    0.1088857780    0.0000000000    1.0
        0.1091890810    0.1091890810    0.0000000000    1.0
        0.1094923840    0.1094923840    0.0000000000    1.0
        0.1097956870    0.1097956870    0.0000000000    1.0
        0.1100989900    0.1100989900    0.0000000000    1.0
        0.1104022930    0.1104022930    0.0000000000    1.0
        0.1107055960    0.1107055960    0.0000000000    1.0
        0.1110088990    0.1110088990    0.0000000000    1.0
        0.1113122020    0.1113122020    0.0000000000    1.0
        0.1116155050    0.1116155050    0.0000000000    1.0
        0.1119188080    0.1119188080    0.0000000000    1.0
        0.1122221110    0.1122221110    0.0000000000    1.0
        0.1125254140    0.1125254140    0.0000000000    1.0
        0.1128287170    0.1128287170    0.0000000000    1.0
        0.1131320200    0.1131320200    0.0000000000    1.0
        0.1134353230    0.1134353230    0.0000000000    1.0
        0.1137386260    0.1137386260    0.0000000000    1.0
        0.1140419290    0.1140419290    0.0000000000    1.0
        0.1143452320    0.1143452320    0.0000000000    1.0
        0.1146485350    0.1146485350    0.0000000000    1.0
        0.1149518380    0.1149518380    0.0000000000    1.0
        0.1152551410    0.1152551410    0.0000000000    1.0
        0.1155584440    0.1155584440    0.0000000000    1.0
        0.1158617470    0.1158617470    0.0000000000    1.0
        0.1161650500    0.1161650500    0.0000000000    1.0
        0.1164683530    0.1164683530    0.0000000000    1.0
        0.1167716561    0.1167716561    0.0000000000    1.0
        0.1170749591    0.1170749591    0.0000000000    1.0
        0.1173782621    0.1173782621    0.0000000000    1.0
        0.1176815651    0.1176815651    0.0000000000    1.0
        0.1179848681    0.1179848681    0.0000000000    1.0
        0.1182881711    0.1182881711    0.0000000000    1.0
        0.1185914741    0.1185914741    0.0000000000    1.0
        0.1188947771    0.1188947771    0.0000000000    1.0
        0.1191980801    0.1191980801    0.0000000000    1.0
        0.1195013831    0.1195013831    0.0000000000    1.0
        0.1198046861    0.1198046861    0.0000000000    1.0
        0.1201079891    0.1201079891    0.0000000000    1.0
        0.1204112921    0.1204112921    0.0000000000    1.0
        0.1207145951    0.1207145951    0.0000000000    1.0
        0.1210178981    0.1210178981    0.0000000000    1.0
        0.1213212011    0.1213212011    0.0000000000    1.0
        0.1216245041    0.1216245041    0.0000000000    1.0
        0.1219278071    0.1219278071    0.0000000000    1.0
        0.1222311101    0.1222311101    0.0000000000    1.0
        0.1225344131    0.1225344131    0.0000000000    1.0
        0.1228377161    0.1228377161    0.0000000000    1.0
        0.1231410191    0.1231410191    0.0000000000    1.0
        0.1234443221    0.1234443221    0.0000000000    1.0
        0.1237476251    0.1237476251    0.0000000000    1.0
        0.1240509281    0.1240509281    0.0000000000    1.0
        0.1243542311    0.1243542311    0.0000000000    1.0
        0.1246575341    0.1246575341    0.0000000000    1.0
        0.1249608371    0.1249608371    0.0000000000    1.0
        0.1252641401    0.1252641401    0.0000000000    1.0
        0.1255674431    0.1255674431    0.0000000000    1.0
        0.1258707461    0.1258707461    0.0000000000    1.0
        0.1261740491    0.1261740491    0.0000000000    1.0
        0.1264773521    0.1264773521    0.0000000000    1.0
        0.1267806551    0.1267806551    0.0000000000    1.0
        0.1270839581    0.1270839581    0.0000000000    1.0
        0.1273872611    0.1273872611    0.0000000000    1.0
        0.1276905641    0.1276905641    0.0000000000    1.0
        0.1279938672    0.1279938672    0.0000000000    1.0
        0.1282971702    0.1282971702    0.0000000000    1.0
        0.1286004732    0.1286004732    0.0000000000    1.0
        0.1289037762    0.1289037762    0.0000000000    1.0
        0.1292070792    0.1292070792    0.0000000000    1.0
        0.1295103822    0.1295103822    0.0000000000    1.0
        0.1298136852    0.1298136852    0.0000000000    1.0
        0.1301169882    0.1301169882    0.0000000000    1.0
        0.1304202912    0.1304202912    0.0000000000    1.0
        0.1307235942    0.1307235942    0.0000000000    1.0
        0.1310268972    0.1310268972    0.0000000000    1.0
        0.1313302002    0.1313302002    0.0000000000    1.0
        0.1316335032    0.1316335032    0.0000000000    1.0
        0.1319368062    0.1319368062    0.0000000000    1.0
        0.1322401092    0.1322401092    0.0000000000    1.0
        0.1325434122    0.1325434122    0.0000000000    1.0
        0.1328467152    0.1328467152    0.0000000000    1.0
        0.1331500182    0.1331500182    0.0000000000    1.0
        0.1334533212    0.1334533212    0.0000000000    1.0
        0.1337566242    0.1337566242    0.0000000000    1.0
        0.1340599272    0.1340599272    0.0000000000    1.0
        0.1343632302    0.1343632302    0.0000000000    1.0
        0.1346665332    0.1346665332    0.0000000000    1.0
        0.1349698362    0.1349698362    0.0000000000    1.0
        0.1352731392    0.1352731392    0.0000000000    1.0
        0.1355764422    0.1355764422    0.0000000000    1.0
        0.1358797452    0.1358797452    0.0000000000    1.0
        0.1361830482    0.1361830482    0.0000000000    1.0
        0.1364863512    0.1364863512    0.0000000000    1.0
        0.1367896542    0.1367896542    0.0000000000    1.0
        0.1370929572    0.1370929572    0.0000000000    1.0
        0.1373962602    0.1373962602    0.0000000000    1.0
        0.1376995632    0.1376995632    0.0000000000    1.0
        0.1380028662    0.1380028662    0.0000000000    1.0
        0.1383061692    0.1383061692    0.0000000000    1.0
        0.1386094722    0.1386094722    0.0000000000    1.0
        0.1389127753    0.1389127753    0.0000000000    1.0
        0.1392160783    0.1392160783    0.0000000000    1.0
        0.1395193813    0.1395193813    0.0000000000    1.0
        0.1398226843    0.1398226843    0.0000000000    1.0
        0.1401259873    0.1401259873    0.0000000000    1.0
        0.1404292903    0.1404292903    0.0000000000    1.0
        0.1407325933    0.1407325933    0.0000000000    1.0
        0.1410358963    0.1410358963    0.0000000000    1.0
        0.1413391993    0.1413391993    0.0000000000    1.0
        0.1416425023    0.1416425023    0.0000000000    1.0
        0.1419458053    0.1419458053    0.0000000000    1.0
        0.1422491083    0.1422491083    0.0000000000    1.0
        0.1425524113    0.1425524113    0.0000000000    1.0